13 5
54 79 16 66 58 
83 3 89 58 56 
15 11 49 31 20 
71 99 15 68 85 
77 56 89 78 53 
36 70 45 91 35 
53 99 60 13 53 
38 60 23 59 41 
27 5 57 49 69 
87 56 64 85 13 
76 3 7 85 86
91 61 1 9 72
14 73 63 39 8
